c Created with the Wolfram Language : www.wolfram.com
c 
p edge 80 157
e 4 8
e 7 8
e 9 11
e 8 12
e 10 16
e 16 17
e 6 19
e 4 20
e 1 21
e 2 21
e 17 21
e 11 22
e 9 23
e 9 24
e 6 25
e 5 28
e 24 28
e 8 30
e 7 33
e 10 33
e 27 33
e 6 34
e 16 34
e 5 35
e 7 35
e 10 35
e 21 35
e 4 36
e 16 36
e 20 36
e 5 37
e 10 37
e 16 37
e 26 37
e 28 37
e 22 38
e 26 38
e 1 39
e 3 39
e 28 39
e 9 41
e 14 42
e 4 43
e 26 43
e 16 44
e 20 44
e 23 44
e 25 44
e 33 44
e 28 45
e 10 46
e 43 46
e 10 47
e 1 48
e 5 48
e 6 48
e 22 49
e 8 50
e 14 50
e 23 50
e 26 50
e 10 51
e 16 51
e 19 51
e 42 51
e 15 52
e 26 53
e 45 53
e 47 53
e 28 54
e 47 54
e 48 54
e 10 55
e 18 55
e 22 55
e 15 56
e 39 56
e 40 57
e 45 57
e 16 58
e 18 58
e 19 58
e 17 59
e 49 59
e 51 59
e 56 60
e 58 60
e 59 60
e 4 61
e 5 61
e 12 61
e 36 61
e 42 61
e 11 62
e 12 62
e 15 62
e 60 63
e 7 64
e 22 64
e 24 64
e 50 64
e 37 65
e 44 65
e 46 65
e 58 65
e 13 66
e 40 66
e 31 67
e 35 68
e 38 68
e 59 68
e 31 69
e 32 69
e 46 69
e 61 69
e 37 70
e 8 71
e 10 71
e 54 71
e 66 71
e 20 72
e 32 72
e 64 72
e 47 73
e 51 73
e 62 73
e 6 74
e 13 74
e 42 74
e 53 74
e 12 75
e 13 75
e 22 75
e 29 75
e 35 75
e 39 75
e 68 75
e 20 76
e 26 76
e 68 76
e 28 77
e 35 77
e 75 77
e 1 78
e 12 78
e 26 78
e 50 78
e 6 79
e 12 79
e 36 79
e 55 79
e 59 79
e 75 79
e 9 80
e 25 80
e 26 80
e 60 80
